NAME : a280
COMMENT : drilling problem (Ludwig)
TYPE : TSP
DIMENSION: 40
EDGE_WEIGHT_TYPE : EUC_2D
NODE_COORD_SECTION
  1 288 149
  2 288 129
  3 270 133
  4 256 141
  5 256 157
  6 246 157
  7 236 169
  8 228 169
  9 228 161
 10 220 169
 11 212 169
 12 204 169
 13 196 169
 14 188 169
 15 196 161
 16 188 145
 17 172 145
 18 164 145
 19 156 145
 20 148 145
 21 140 145
 22 148 169
 23 164 169
 24 172 169
 25 156 169
 26 140 169
 27 132 169
 28 124 169
 29 116 161
 30 104 153
 31 104 161
 32 104 169
 33  90 165
 34  80 157
 35  64 157
 36  64 165
 37  56 169
 38  56 161
 39  56 153
 40  56 145
EOF
